p cnf 24 119
1 2 3 4 5 6 7 8 0
9 10 11 12 13 14 15 16 0
17 18 19 20 21 22 23 24 0
1 9 17 4 12 20 0
1 9 17 7 15 23 0
2 10 18 3 11 19 0
2 10 18 7 15 23 0
2 10 18 8 16 24 0
3 11 19 7 15 23 0
4 12 20 6 14 22 0
5 13 21 7 15 23 0
-1 -9 0
-2 -10 0
-3 -11 0
-4 -12 0
-5 -13 0
-6 -14 0
-7 -15 0
-8 -16 0
-1 -17 0
-2 -18 0
-3 -19 0
-4 -20 0
-5 -21 0
-6 -22 0
-7 -23 0
-8 -24 0
-9 -17 0
-10 -18 0
-11 -19 0
-12 -20 0
-13 -21 0
-14 -22 0
-15 -23 0
-16 -24 0
-1 -2 0
-9 -10 0
-17 -18 0
-1 -3 0
-9 -11 0
-17 -19 0
-1 -4 0
-9 -12 0
-17 -20 0
-1 -5 0
-9 -13 0
-17 -21 0
-1 -6 0
-9 -14 0
-17 -22 0
-1 -7 0
-9 -15 0
-17 -23 0
-1 -8 0
-9 -16 0
-17 -24 0
-2 -3 0
-10 -11 0
-18 -19 0
-2 -4 0
-10 -12 0
-18 -20 0
-2 -5 0
-10 -13 0
-18 -21 0
-2 -6 0
-10 -14 0
-18 -22 0
-2 -7 0
-10 -15 0
-18 -23 0
-2 -8 0
-10 -16 0
-18 -24 0
-3 -4 0
-11 -12 0
-19 -20 0
-3 -5 0
-11 -13 0
-19 -21 0
-3 -6 0
-11 -14 0
-19 -22 0
-3 -7 0
-11 -15 0
-19 -23 0
-3 -8 0
-11 -16 0
-19 -24 0
-4 -5 0
-12 -13 0
-20 -21 0
-4 -6 0
-12 -14 0
-20 -22 0
-4 -7 0
-12 -15 0
-20 -23 0
-4 -8 0
-12 -16 0
-20 -24 0
-5 -6 0
-13 -14 0
-21 -22 0
-5 -7 0
-13 -15 0
-21 -23 0
-5 -8 0
-13 -16 0
-21 -24 0
-6 -7 0
-14 -15 0
-22 -23 0
-6 -8 0
-14 -16 0
-22 -24 0
-7 -8 0
-15 -16 0
-23 -24 0
